set VV := 0 1 2 3 4 5 6 7 8 9 10 11 12 13 14 15 16 17 18 19 20 21 22 23 24 25 26 27 28 29 30 31 32 33 34 35 36 37 38 39 40 41 42 ;
set VS := 0 1 2 3 4 5 6 7 8 9 10 11 12 13 14 15 16 17 18 19 20 21 22 23 24 25 26 27 28 29 30 31 32 33 34 35 36 37 38 39 40 41 42 43 44 45 46 47 48 49 50 51 52 53 54 55 56 57 58 59 60 61 62 63 64 65 66 67 68 69 70 71 72 73 74 75 76 77 78 79 80 81 82 83 84 85 86 87 88 89 90 ;
param cv := 
0 17
1 21
2 14
3 17
4 25
5 19
6 18
7 22
8 10
9 12
10 10
11 21
12 22
13 18
14 23
15 14
16 24
17 19
18 10
19 10
20 24
21 24
22 14
23 21
24 21
25 17
26 19
27 23
28 14
29 18
30 25
31 15
32 12
33 17
34 12
35 25
36 19
37 23
38 12
39 19
40 18
41 20
42 18
;
param cs := 
0 27
1 40
2 26
3 37
4 31
5 38
6 24
7 38
8 29
9 37
10 37
11 23
12 20
13 23
14 38
15 28
16 30
17 40
18 28
19 38
20 29
21 39
22 40
23 29
24 24
25 31
26 25
27 32
28 20
29 35
30 39
31 31
32 32
33 36
34 27
35 37
36 40
37 21
38 38
39 40
40 21
41 40
42 32
43 24
44 35
45 30
46 31
47 32
48 29
49 40
50 26
51 35
52 27
53 37
54 25
55 33
56 38
57 29
58 30
59 25
60 23
61 35
62 30
63 38
64 38
65 23
66 40
67 31
68 28
69 32
70 30
71 40
72 36
73 33
74 36
75 37
76 40
77 38
78 26
79 36
80 35
81 23
82 21
83 30
84 28
85 27
86 37
87 20
88 31
89 37
90 29
;
param bv:	 0 1 2 3 4 5 6 7 8 9 10 11 12 13 14 15 16 17 18 19 20 21 22 23 24 25 26 27 28 29 30 31 32 33 34 35 36 37 38 39 40 41 42 := 
		0 0 0 0 0 0 0 0 0 0 15 0 0 0 0 0 0 0 24 0 0 0 21 0 0 0 0 0 0 0 0 0 0 0 0 0 0 0 0 0 0 0 0 0 
		1 0 0 0 0 0 0 0 0 0 0 0 0 0 0 0 0 0 0 0 0 0 0 0 12 0 0 0 0 0 0 0 22 0 0 0 0 0 0 0 0 0 0 0 
		2 0 0 0 0 0 0 0 0 0 0 11 0 0 24 0 0 0 0 0 0 0 0 0 0 10 0 0 0 0 0 0 15 0 25 15 0 0 11 0 0 0 0 0 
		3 0 0 0 0 0 0 0 0 0 0 0 0 0 0 0 0 0 0 0 0 0 0 0 0 0 0 0 0 0 15 0 0 0 0 0 0 0 0 0 0 0 0 0 
		4 0 0 0 0 0 0 0 0 0 0 0 0 0 0 21 0 0 0 12 0 0 0 0 0 0 0 0 0 0 23 0 0 0 0 0 20 0 0 0 18 0 0 0 
		5 0 0 0 0 0 0 0 0 15 19 0 0 0 0 0 0 0 0 0 0 0 0 0 0 0 0 0 0 0 0 0 0 0 0 0 0 0 0 0 0 0 0 0 
		6 0 0 0 0 0 0 0 0 0 22 0 0 0 0 0 0 18 0 0 0 0 0 0 0 0 0 0 0 0 0 0 0 0 0 0 0 23 0 0 0 0 0 0 
		7 0 0 0 0 0 0 0 0 0 0 22 0 0 0 0 0 0 0 0 0 0 13 0 0 0 0 14 0 0 0 0 0 0 0 0 0 0 0 0 0 0 0 0 
		8 0 0 0 0 0 0 0 0 0 0 0 0 0 0 0 0 0 11 0 16 0 0 0 0 0 15 0 0 0 0 13 0 0 0 0 0 0 12 0 15 0 0 0 
		9 0 0 0 0 0 0 0 0 0 0 0 0 0 0 0 0 0 0 0 0 0 0 0 0 0 0 0 0 0 0 0 0 0 0 0 0 0 0 0 0 0 0 0 
		10 0 0 0 0 0 0 0 0 0 0 0 0 0 0 0 0 0 0 12 0 0 11 18 19 0 0 0 14 17 0 0 0 0 0 24 0 0 0 0 0 0 0 0 
		11 0 0 0 0 0 0 0 0 0 0 0 0 25 0 0 11 0 0 0 0 0 0 0 0 0 0 0 0 0 0 0 0 0 0 0 0 0 0 0 12 0 0 0 
		12 0 0 0 0 0 0 0 0 0 0 0 0 0 0 0 0 0 0 0 0 0 0 0 0 14 0 0 0 0 0 0 0 0 0 0 0 0 0 0 0 0 0 0 
		13 0 0 0 0 0 0 0 0 0 0 0 0 0 0 0 0 0 12 0 21 0 0 0 0 0 0 0 0 25 0 0 0 0 0 0 0 0 0 0 0 0 0 0 
		14 0 0 0 0 0 0 0 0 0 0 0 0 0 0 0 0 0 0 0 0 0 0 0 0 0 23 19 0 0 0 0 0 0 0 0 0 0 0 0 0 0 0 21 
		15 0 0 0 0 0 0 0 0 0 0 0 0 0 0 0 0 0 14 0 0 0 0 23 0 0 0 0 0 0 0 0 0 0 0 20 15 0 0 15 0 0 0 0 
		16 0 0 0 0 0 0 0 0 0 0 0 0 0 0 0 0 0 0 0 25 0 22 0 0 0 0 0 0 0 0 25 0 0 0 0 0 0 0 15 0 0 0 16 
		17 0 0 0 0 0 0 0 0 0 0 0 0 0 0 0 0 0 0 0 0 0 14 0 0 0 0 0 0 0 0 0 0 0 0 0 22 0 11 0 0 0 0 19 
		18 0 0 0 0 0 0 0 0 0 0 0 0 0 0 0 0 0 0 0 0 0 0 0 0 0 0 13 0 0 0 0 10 13 0 0 24 0 0 0 0 0 25 0 
		19 0 0 0 0 0 0 0 0 0 0 0 0 0 0 0 0 0 0 0 0 0 0 0 0 0 0 0 0 0 0 0 0 0 0 0 0 0 0 0 0 0 14 0 
		20 0 0 0 0 0 0 0 0 0 0 0 0 0 0 0 0 0 0 0 0 0 0 0 0 10 20 0 0 20 0 0 0 0 0 0 0 0 0 0 0 0 0 0 
		21 0 0 0 0 0 0 0 0 0 0 0 0 0 0 0 0 0 0 0 0 0 0 0 0 0 0 0 0 10 0 0 0 0 0 0 0 0 0 0 0 0 0 0 
		22 0 0 0 0 0 0 0 0 0 0 0 0 0 0 0 0 0 0 0 0 0 0 0 0 0 0 0 0 0 0 15 0 0 0 10 0 0 0 0 0 24 0 0 
		23 0 0 0 0 0 0 0 0 0 0 0 0 0 0 0 0 0 0 0 0 0 0 0 0 0 0 0 0 0 0 18 0 24 0 0 0 0 0 0 0 0 0 0 
		24 0 0 0 0 0 0 0 0 0 0 0 0 0 0 0 0 0 0 0 0 0 0 0 0 0 0 0 0 0 0 0 0 17 0 0 0 0 0 0 0 15 0 0 
		25 0 0 0 0 0 0 0 0 0 0 0 0 0 0 0 0 0 0 0 0 0 0 0 0 0 0 0 0 0 0 0 0 0 0 0 0 0 0 0 0 0 0 0 
		26 0 0 0 0 0 0 0 0 0 0 0 0 0 0 0 0 0 0 0 0 0 0 0 0 0 0 0 0 0 0 0 0 0 23 0 0 0 0 0 0 0 0 13 
		27 0 0 0 0 0 0 0 0 0 0 0 0 0 0 0 0 0 0 0 0 0 0 0 0 0 0 0 0 0 0 0 0 0 0 0 19 11 0 0 0 0 13 0 
		28 0 0 0 0 0 0 0 0 0 0 0 0 0 0 0 0 0 0 0 0 0 0 0 0 0 0 0 0 0 21 0 0 0 0 0 0 0 0 0 0 0 0 16 
		29 0 0 0 0 0 0 0 0 0 0 0 0 0 0 0 0 0 0 0 0 0 0 0 0 0 0 0 0 0 0 0 0 12 0 0 22 0 0 25 0 0 0 0 
		30 0 0 0 0 0 0 0 0 0 0 0 0 0 0 0 0 0 0 0 0 0 0 0 0 0 0 0 0 0 0 0 0 14 0 0 0 0 0 0 0 0 0 0 
		31 0 0 0 0 0 0 0 0 0 0 0 0 0 0 0 0 0 0 0 0 0 0 0 0 0 0 0 0 0 0 0 0 0 0 0 0 0 0 0 0 0 0 0 
		32 0 0 0 0 0 0 0 0 0 0 0 0 0 0 0 0 0 0 0 0 0 0 0 0 0 0 0 0 0 0 0 0 0 0 0 0 0 0 0 0 0 0 0 
		33 0 0 0 0 0 0 0 0 0 0 0 0 0 0 0 0 0 0 0 0 0 0 0 0 0 0 0 0 0 0 0 0 0 0 0 0 0 0 0 0 0 0 17 
		34 0 0 0 0 0 0 0 0 0 0 0 0 0 0 0 0 0 0 0 0 0 0 0 0 0 0 0 0 0 0 0 0 0 0 0 0 0 0 0 0 0 0 0 
		35 0 0 0 0 0 0 0 0 0 0 0 0 0 0 0 0 0 0 0 0 0 0 0 0 0 0 0 0 0 0 0 0 0 0 0 0 0 23 0 0 0 0 0 
		36 0 0 0 0 0 0 0 0 0 0 0 0 0 0 0 0 0 0 0 0 0 0 0 0 0 0 0 0 0 0 0 0 0 0 0 0 0 0 0 0 0 0 0 
		37 0 0 0 0 0 0 0 0 0 0 0 0 0 0 0 0 0 0 0 0 0 0 0 0 0 0 0 0 0 0 0 0 0 0 0 0 0 0 0 0 15 13 0 
		38 0 0 0 0 0 0 0 0 0 0 0 0 0 0 0 0 0 0 0 0 0 0 0 0 0 0 0 0 0 0 0 0 0 0 0 0 0 0 0 0 0 0 13 
		39 0 0 0 0 0 0 0 0 0 0 0 0 0 0 0 0 0 0 0 0 0 0 0 0 0 0 0 0 0 0 0 0 0 0 0 0 0 0 0 0 0 0 0 
		40 0 0 0 0 0 0 0 0 0 0 0 0 0 0 0 0 0 0 0 0 0 0 0 0 0 0 0 0 0 0 0 0 0 0 0 0 0 0 0 0 0 0 0 
		41 0 0 0 0 0 0 0 0 0 0 0 0 0 0 0 0 0 0 0 0 0 0 0 0 0 0 0 0 0 0 0 0 0 0 0 0 0 0 0 0 0 0 0 
		42 0 0 0 0 0 0 0 0 0 0 0 0 0 0 0 0 0 0 0 0 0 0 0 0 0 0 0 0 0 0 0 0 0 0 0 0 0 0 0 0 0 0 0 
;
param bs:	 0 1 2 3 4 5 6 7 8 9 10 11 12 13 14 15 16 17 18 19 20 21 22 23 24 25 26 27 28 29 30 31 32 33 34 35 36 37 38 39 40 41 42 43 44 45 46 47 48 49 50 51 52 53 54 55 56 57 58 59 60 61 62 63 64 65 66 67 68 69 70 71 72 73 74 75 76 77 78 79 80 81 82 83 84 85 86 87 88 89 90 := 
		0 0 0 0 0 0 0 0 0 0 0 0 27 25 0 0 0 0 0 0 0 0 0 0 0 0 26 0 0 0 30 0 0 0 0 0 22 0 0 26 0 0 0 0 0 0 0 0 0 0 35 0 0 0 0 0 0 0 0 0 0 0 0 0 0 0 0 0 0 23 0 0 0 0 0 0 0 0 0 0 0 0 0 0 24 0 30 0 0 0 0 0 
		1 0 0 0 0 0 0 0 0 0 0 0 0 0 0 25 0 0 35 0 0 0 0 0 0 0 0 0 0 0 0 0 0 0 0 0 0 0 0 0 0 0 0 0 0 0 20 0 0 0 0 0 0 0 0 36 0 0 0 0 0 0 0 24 0 0 0 25 0 0 0 0 0 0 0 0 0 0 0 24 0 0 0 0 0 0 0 0 0 24 0 0 
		2 0 0 0 0 0 0 0 0 0 24 0 0 38 0 0 0 0 0 22 0 0 0 0 0 0 37 0 0 0 0 0 0 38 0 0 0 0 0 0 0 0 0 0 0 0 0 0 0 0 0 0 0 0 0 0 0 0 0 0 0 0 0 0 0 0 0 0 0 0 0 0 0 0 0 28 0 0 0 36 0 0 0 0 0 0 0 0 0 0 0 0 
		3 0 0 0 0 20 0 0 0 0 0 0 0 0 0 0 0 0 0 26 0 0 0 0 0 0 0 0 0 0 0 0 0 22 0 0 0 0 0 38 0 0 0 27 0 0 0 0 0 0 0 0 0 0 0 0 0 0 0 0 0 0 0 0 38 0 0 0 0 0 0 40 0 0 0 27 0 0 0 0 0 0 0 0 0 0 0 0 0 0 21 0 
		4 0 0 0 20 0 0 0 0 0 0 0 0 0 0 0 0 0 0 0 0 0 0 0 0 0 0 0 0 0 0 0 0 0 0 0 0 0 0 0 0 0 28 28 0 0 0 0 0 0 0 0 0 0 0 0 0 0 0 0 0 0 0 0 0 0 0 0 0 0 0 0 24 0 0 0 0 0 27 0 0 0 0 0 0 0 0 30 0 0 0 0 
		5 0 0 0 0 0 0 0 0 0 0 0 0 0 0 0 0 0 0 0 0 0 0 0 0 0 0 0 0 0 0 0 0 0 0 0 0 0 0 0 0 0 0 0 0 0 0 0 0 0 0 0 30 0 0 0 0 0 0 0 0 0 0 0 0 0 0 0 0 0 0 0 0 40 0 0 0 0 0 0 0 0 0 0 28 0 0 0 0 0 0 40 
		6 0 0 0 0 0 0 0 0 0 0 0 0 0 0 0 0 0 0 0 0 39 0 0 0 29 0 28 0 0 24 0 0 0 0 0 29 0 0 0 0 0 0 0 0 0 34 0 28 0 0 0 0 30 0 0 0 0 0 31 0 0 0 0 0 35 0 0 0 39 25 0 0 0 0 0 0 0 0 0 0 0 0 0 0 0 0 0 0 29 0 0 
		7 0 0 0 0 0 0 0 0 0 0 0 0 0 24 0 0 0 0 0 40 30 0 0 0 0 0 0 0 0 0 0 0 0 20 0 0 0 0 0 23 0 0 0 0 0 0 0 0 0 0 0 0 0 0 32 0 0 0 0 0 0 0 0 0 0 0 0 0 31 0 0 0 0 0 0 0 0 0 0 0 0 0 0 0 0 35 0 0 27 0 0 
		8 0 0 0 0 0 0 0 0 0 0 0 0 0 0 0 30 0 0 0 0 0 0 0 0 0 0 0 0 0 0 0 0 0 0 0 0 0 28 0 0 0 0 0 0 0 0 0 21 0 0 0 0 0 0 0 0 0 0 0 0 0 0 0 0 0 0 0 0 0 0 0 0 0 0 0 0 0 0 0 0 0 0 0 0 0 0 0 0 27 0 0 
		9 0 0 24 0 0 0 0 0 0 0 0 0 0 33 0 0 0 27 0 0 0 0 0 0 0 0 0 0 23 0 0 0 0 0 0 0 0 0 0 0 39 0 0 0 0 0 0 0 0 0 0 0 0 32 0 0 26 40 0 0 0 0 0 0 0 0 0 0 0 0 0 0 0 0 0 0 0 0 0 0 0 0 0 0 0 0 0 0 0 0 0 
		10 0 0 0 0 0 0 0 0 0 0 0 0 0 0 0 0 0 0 0 0 35 0 0 0 0 34 0 0 0 0 0 0 30 0 0 0 0 0 0 0 0 33 0 0 0 0 30 0 34 0 0 0 37 0 0 0 29 0 0 0 0 0 0 0 0 0 33 0 0 0 28 0 0 0 0 0 0 33 0 0 0 0 0 0 0 0 0 33 0 37 0 
		11 27 0 0 0 0 0 0 0 0 0 0 0 0 0 0 0 33 0 0 0 0 0 0 0 0 0 0 0 0 0 0 0 0 0 0 0 0 27 0 0 0 0 0 24 0 0 0 0 0 0 0 0 0 0 0 0 0 0 0 27 0 0 0 0 0 0 0 0 0 0 0 0 0 0 0 0 0 0 0 0 40 0 0 0 21 0 0 0 0 21 0 
		12 25 0 38 0 0 0 0 0 0 0 0 0 0 0 24 0 0 39 0 0 0 0 0 0 0 0 0 0 0 0 0 29 39 0 0 0 0 0 0 0 0 0 0 0 0 0 0 0 0 0 0 0 39 31 0 0 0 0 0 0 0 0 0 0 32 0 0 0 24 0 0 0 0 36 0 0 0 31 0 0 0 0 23 0 34 0 0 0 0 0 0 
		13 0 0 0 0 0 0 0 24 0 33 0 0 0 0 29 0 0 35 0 28 0 0 0 0 0 0 0 29 0 0 0 0 0 20 0 0 0 0 0 32 0 28 39 0 0 0 0 0 0 0 0 0 0 0 0 0 25 38 0 0 27 0 0 0 0 37 0 0 0 0 0 0 0 0 0 0 0 0 0 0 0 0 0 0 0 0 0 0 22 0 0 
		14 0 25 0 0 0 0 0 0 0 0 0 0 24 29 0 0 25 0 0 0 0 0 0 0 0 0 0 37 0 0 0 0 0 0 0 0 0 0 0 36 0 0 0 0 0 0 0 0 0 0 0 0 28 0 0 0 24 0 0 0 0 25 0 0 36 0 0 35 0 0 0 0 0 0 0 0 0 0 0 0 0 0 0 32 20 0 0 0 0 0 0 
		15 0 0 0 0 0 0 0 0 30 0 0 0 0 0 0 0 0 0 0 0 0 0 0 0 0 0 0 0 0 32 0 0 0 0 0 0 0 0 35 0 0 0 22 0 0 0 0 0 35 0 0 32 0 0 0 0 0 0 0 0 0 0 0 0 0 0 0 0 0 0 0 0 0 33 0 0 0 21 0 0 0 0 0 0 0 0 0 36 36 0 0 
		16 0 0 0 0 0 0 0 0 0 0 0 33 0 0 25 0 0 39 0 0 0 0 0 0 0 0 0 0 0 24 0 0 0 0 0 28 0 0 0 0 0 0 0 0 39 0 0 0 0 0 0 0 26 0 0 0 39 0 0 0 0 0 0 0 0 0 0 0 0 0 0 0 0 25 0 0 0 0 0 0 0 0 0 0 0 0 0 0 0 0 0 
		17 0 35 0 0 0 0 0 0 0 27 0 0 39 35 0 0 39 0 0 0 0 0 0 0 0 0 30 0 0 0 23 0 0 23 0 0 0 0 0 0 0 0 0 0 22 0 20 0 0 0 0 0 25 0 0 0 31 0 0 0 21 0 0 0 0 0 0 0 0 0 0 28 0 0 0 0 0 0 0 0 0 0 0 0 0 0 0 0 0 0 0 
		18 0 0 22 26 0 0 0 0 0 0 0 0 0 0 0 0 0 0 0 0 0 0 0 0 0 23 0 0 0 0 0 0 0 0 0 0 0 0 0 0 0 0 0 0 0 0 0 0 0 0 0 39 0 0 0 0 0 0 0 0 0 0 0 23 0 0 0 0 0 0 0 32 0 0 28 0 0 0 0 0 0 0 35 0 0 21 35 0 0 0 0 
		19 0 0 0 0 0 0 0 40 0 0 0 0 0 28 0 0 0 0 0 0 40 0 0 0 0 0 0 0 22 0 0 35 39 37 0 0 32 0 0 0 34 0 0 0 0 24 0 0 0 0 0 0 0 0 0 0 0 0 0 0 0 25 0 0 0 0 0 0 26 0 0 0 0 0 0 0 0 0 0 0 0 36 0 0 0 0 0 0 0 0 0 
		20 0 0 0 0 0 0 39 30 0 0 35 0 0 0 0 0 0 0 0 40 0 0 24 0 0 0 0 0 0 0 0 0 0 0 0 0 0 23 0 0 0 35 0 0 0 0 40 32 0 0 0 0 0 23 0 0 0 0 0 0 0 0 23 0 0 31 0 0 0 0 0 0 0 0 0 0 0 23 0 0 0 0 0 0 0 24 0 0 0 0 0 
		21 0 0 0 0 0 0 0 0 0 0 0 0 0 0 0 0 0 0 0 0 0 0 0 0 0 0 0 31 0 0 0 0 26 0 0 0 0 0 0 0 0 0 0 0 0 0 0 0 0 0 0 0 0 0 0 0 0 0 0 0 0 0 31 0 0 0 0 0 0 0 0 0 0 0 0 0 0 0 0 0 0 0 0 0 0 36 0 0 0 0 0 
		22 0 0 0 0 0 0 0 0 0 0 0 0 0 0 0 0 0 0 0 0 24 0 0 0 0 0 0 0 0 0 0 0 0 0 0 0 21 0 0 0 0 0 0 0 0 0 0 0 0 0 0 0 0 0 0 0 0 0 0 0 0 36 0 0 0 0 0 0 0 0 0 0 0 0 0 0 39 0 23 0 0 35 0 0 0 0 0 0 0 0 0 
		23 0 0 0 0 0 0 0 0 0 0 0 0 0 0 0 0 0 0 0 0 0 0 0 0 0 22 0 0 0 0 30 0 0 0 0 0 0 35 0 0 0 0 0 0 0 0 0 33 0 0 0 0 0 0 0 38 0 0 26 0 0 0 0 0 0 0 0 0 0 0 0 0 0 0 33 32 0 0 0 0 0 0 0 0 37 0 0 0 0 0 0 
		24 0 0 0 0 0 0 29 0 0 0 0 0 0 0 0 0 0 0 0 0 0 0 0 0 0 0 0 0 0 0 32 25 0 0 0 0 0 0 0 0 0 0 0 0 0 27 0 0 0 0 0 0 0 0 0 0 0 0 0 0 0 0 0 0 0 0 0 0 0 0 0 0 0 0 0 0 0 0 0 0 0 0 0 0 0 0 0 0 0 0 0 
		25 26 0 37 0 0 0 0 0 0 0 34 0 0 0 0 0 0 0 23 0 0 0 0 22 0 0 0 0 0 0 21 0 31 0 0 0 0 0 0 0 0 0 0 0 0 29 0 0 0 0 0 0 0 0 0 0 0 0 20 0 0 0 0 0 0 0 0 0 0 0 0 22 0 0 0 0 0 0 0 0 0 0 0 0 0 0 0 0 39 0 31 
		26 0 0 0 0 0 0 28 0 0 0 0 0 0 0 0 0 0 30 0 0 0 0 0 0 0 0 0 0 0 0 0 0 24 37 21 0 0 0 0 0 0 0 0 0 0 20 0 0 0 0 0 0 0 0 0 0 0 0 0 26 0 0 0 0 36 0 0 32 0 0 0 29 0 0 0 0 0 0 0 0 0 27 0 0 26 0 0 0 0 0 0 
		27 0 0 0 0 0 0 0 0 0 0 0 0 0 29 37 0 0 0 0 0 0 31 0 0 0 0 0 0 0 34 29 0 0 0 0 0 0 0 0 0 0 0 23 0 0 0 0 0 0 0 0 0 0 0 0 0 37 21 0 0 39 0 0 0 0 40 0 0 0 0 0 0 0 0 0 0 0 0 0 0 0 0 0 0 0 0 37 0 0 0 0 
		28 0 0 0 0 0 0 0 0 0 23 0 0 0 0 0 0 0 0 0 22 0 0 0 0 0 0 0 0 0 0 0 0 0 0 0 0 0 31 31 0 0 0 0 0 0 0 0 0 0 0 0 0 0 0 0 0 0 0 0 0 0 0 0 29 0 0 0 0 0 0 35 0 36 0 0 0 0 0 0 0 0 0 0 0 0 0 0 0 40 0 27 
		29 30 0 0 0 0 0 24 0 0 0 0 0 0 0 0 32 24 0 0 0 0 0 0 0 0 0 0 34 0 0 0 0 0 0 0 0 0 0 0 0 0 0 0 0 0 0 36 0 0 0 0 0 0 0 0 0 33 0 0 30 0 0 0 0 0 39 0 0 0 0 0 0 0 0 0 0 0 36 0 0 0 0 0 0 0 0 0 0 0 0 0 
		30 0 0 0 0 0 0 0 0 0 0 0 0 0 0 0 0 0 23 0 0 0 0 0 30 32 21 0 29 0 0 0 0 0 0 0 0 0 0 0 0 23 0 0 37 26 0 0 0 30 26 23 0 0 0 0 0 0 0 0 0 0 0 0 0 0 0 28 0 0 0 0 0 0 0 0 0 0 0 0 28 0 0 0 0 0 0 0 0 0 0 0 
		31 0 0 0 0 0 0 0 0 0 0 0 0 29 0 0 0 0 0 0 35 0 0 0 0 25 0 0 0 0 0 0 0 0 0 0 21 0 0 0 0 0 0 0 0 26 0 0 34 0 0 0 0 0 36 0 0 30 0 37 0 0 0 0 0 0 0 0 0 0 0 0 25 0 29 0 0 27 0 32 0 0 33 0 0 29 0 0 0 0 34 0 
		32 0 0 38 22 0 0 0 0 0 0 30 0 39 0 0 0 0 0 0 39 0 26 0 0 0 31 24 0 0 0 0 0 0 0 0 40 0 0 30 0 0 0 0 0 0 0 0 0 0 0 0 0 0 29 0 0 0 0 0 0 0 0 0 0 0 27 0 0 0 0 29 0 0 0 0 39 26 21 0 0 0 0 0 0 0 34 32 0 0 0 0 
		33 0 0 0 0 0 0 0 20 0 0 0 0 0 20 0 0 0 23 0 37 0 0 0 0 0 0 37 0 0 0 0 0 0 0 0 0 0 0 0 27 0 0 21 0 0 0 0 26 0 0 0 0 0 34 0 0 0 25 0 0 0 39 0 0 0 0 0 0 0 0 0 0 0 0 0 0 32 0 0 0 30 0 0 0 0 0 0 0 0 0 0 
		34 0 0 0 0 0 0 0 0 0 0 0 0 0 0 0 0 0 0 0 0 0 0 0 0 0 0 21 0 0 0 0 0 0 0 0 0 0 0 0 0 0 0 0 0 0 0 0 0 0 0 25 0 26 0 0 0 0 0 27 0 0 0 0 0 0 0 31 0 26 0 0 0 0 0 0 0 0 0 0 29 0 0 0 27 0 0 0 0 0 0 0 
		35 22 0 0 0 0 0 29 0 0 0 0 0 0 0 0 0 28 0 0 0 0 0 0 0 0 0 0 0 0 0 0 21 40 0 0 0 30 0 0 0 0 37 0 0 0 0 0 0 0 0 0 0 0 0 0 0 0 0 0 0 0 0 27 0 0 0 0 23 0 0 0 0 0 0 0 0 0 0 0 0 0 0 0 0 0 0 0 26 0 0 0 
		36 0 0 0 0 0 0 0 0 0 0 0 0 0 0 0 0 0 0 0 32 0 0 21 0 0 0 0 0 0 0 0 0 0 0 0 30 0 0 28 0 37 27 0 0 0 0 0 33 0 0 0 0 0 0 0 0 0 0 0 0 37 0 0 0 0 0 0 0 0 0 0 0 0 0 0 0 0 0 0 0 0 0 0 0 0 0 0 0 38 0 0 
		37 0 0 0 0 0 0 0 0 28 0 0 27 0 0 0 0 0 0 0 0 23 0 0 35 0 0 0 0 31 0 0 0 0 0 0 0 0 0 0 0 33 0 0 0 0 0 0 0 0 0 0 0 0 0 0 0 0 34 0 0 0 0 0 0 0 0 0 0 0 0 0 0 0 0 0 0 0 0 0 0 0 0 0 0 0 0 0 0 39 0 0 
		38 26 0 0 38 0 0 0 0 0 0 0 0 0 0 0 35 0 0 0 0 0 0 0 0 0 0 0 0 31 0 0 0 30 0 0 0 28 0 0 0 28 0 0 0 0 0 0 0 0 0 0 0 0 20 0 0 0 0 0 0 0 0 0 0 0 0 0 0 32 0 0 0 0 0 0 0 36 0 0 0 0 0 0 0 0 23 0 0 0 0 0 
		39 0 0 0 0 0 0 0 23 0 0 0 0 0 32 36 0 0 0 0 0 0 0 0 0 0 0 0 0 0 0 0 0 0 27 0 0 0 0 0 0 35 0 0 0 0 0 0 0 0 28 0 0 0 38 0 0 0 0 0 0 0 32 0 0 0 0 0 0 0 0 0 0 0 0 0 0 0 0 0 0 0 0 0 0 0 0 0 0 0 0 0 
		40 0 0 0 0 0 0 0 0 0 39 0 0 0 0 0 0 0 0 0 34 0 0 0 0 0 0 0 0 0 0 23 0 0 0 0 0 37 33 28 35 0 0 38 0 0 0 0 0 0 0 0 0 0 0 0 0 0 28 0 0 0 0 20 0 0 29 0 0 0 0 0 37 0 0 0 0 0 0 28 0 0 35 0 0 0 0 0 0 32 0 0 
		41 0 0 0 0 28 0 0 0 0 0 33 0 0 28 0 0 0 0 0 0 35 0 0 0 0 0 0 0 0 0 0 0 0 0 0 37 27 0 0 0 0 0 0 0 0 0 0 0 0 0 0 40 0 0 0 0 0 0 0 0 0 0 0 0 0 0 0 0 27 0 25 0 40 0 0 0 0 25 0 29 0 0 0 40 0 0 0 0 0 22 0 
		42 0 0 0 27 28 0 0 0 0 0 0 0 0 39 0 22 0 0 0 0 0 0 0 0 0 0 0 23 0 0 0 0 0 21 0 0 0 0 0 0 38 0 0 0 0 0 0 0 0 0 0 0 0 0 0 0 0 20 0 0 35 0 0 0 0 0 0 33 0 0 0 0 0 0 0 0 0 0 0 0 0 0 0 0 0 0 0 0 0 0 0 
		43 0 0 0 0 0 0 0 0 0 0 0 24 0 0 0 0 0 0 0 0 0 0 0 0 0 0 0 0 0 0 37 0 0 0 0 0 0 0 0 0 0 0 0 0 0 0 0 24 0 0 34 0 35 24 0 0 35 0 0 0 0 0 28 0 40 0 0 0 0 0 0 0 0 0 0 0 0 0 0 0 0 0 0 0 0 0 0 0 0 0 0 
		44 0 0 0 0 0 0 0 0 0 0 0 0 0 0 0 0 39 22 0 0 0 0 0 0 0 0 0 0 0 0 26 26 0 0 0 0 0 0 0 0 0 0 0 0 0 0 0 0 0 0 0 0 0 0 0 0 0 0 0 0 0 0 0 0 0 0 0 20 0 0 0 40 0 0 0 0 0 0 34 0 0 40 0 0 35 0 0 0 37 0 0 
		45 0 20 0 0 0 0 34 0 0 0 0 0 0 0 0 0 0 0 0 24 0 0 0 0 27 29 20 0 0 0 0 0 0 0 0 0 0 0 0 0 0 0 0 0 0 0 0 0 0 0 0 0 0 0 0 0 25 0 0 36 0 0 0 0 0 0 28 0 0 0 0 0 0 0 0 0 0 0 0 0 0 0 0 0 0 0 0 0 0 0 0 
		46 0 0 0 0 0 0 0 0 0 0 30 0 0 0 0 0 0 20 0 0 40 0 0 0 0 0 0 0 0 36 0 0 0 0 0 0 0 0 0 0 0 0 0 0 0 0 0 0 34 0 38 0 0 0 0 0 0 0 0 0 0 0 0 0 0 0 31 0 0 0 27 0 0 0 0 0 0 0 0 20 0 0 36 0 29 0 0 0 21 0 31 
		47 0 0 0 0 0 0 28 0 21 0 0 0 0 0 0 0 0 0 0 0 32 0 0 33 0 0 0 0 0 0 0 34 0 26 0 0 33 0 0 0 0 0 0 24 0 0 0 0 0 0 0 23 0 0 0 0 0 36 0 0 0 0 39 0 0 0 0 0 31 0 0 39 0 0 0 0 21 0 0 0 0 0 0 0 24 0 0 0 0 0 0 
		48 0 0 0 0 0 0 0 0 0 0 34 0 0 0 0 35 0 0 0 0 0 0 0 0 0 0 0 0 0 0 30 0 0 0 0 0 0 0 0 0 0 0 0 0 0 0 34 0 0 0 0 0 0 0 0 36 0 0 0 0 0 0 0 0 0 21 0 0 0 0 0 0 0 0 0 0 0 0 0 0 0 0 0 0 0 0 0 0 0 0 0 
		49 35 0 0 0 0 0 0 0 0 0 0 0 0 0 0 0 0 0 0 0 0 0 0 0 0 0 0 0 0 0 26 0 0 0 0 0 0 0 0 28 0 0 0 0 0 0 0 0 0 0 20 0 40 0 28 0 0 0 32 0 0 0 0 0 0 0 0 29 0 0 0 0 0 0 0 0 0 0 0 0 0 0 0 0 0 0 0 0 0 0 0 
		50 0 0 0 0 0 0 0 0 0 0 0 0 0 0 0 0 0 0 0 0 0 0 0 0 0 0 0 0 0 0 23 0 0 0 25 0 0 0 0 0 0 0 0 34 0 0 38 0 0 20 0 0 0 0 0 0 0 0 39 0 0 0 0 0 20 0 0 0 0 0 0 0 0 0 0 0 0 0 0 0 0 0 29 0 0 0 0 0 0 0 0 
		51 0 0 0 0 0 30 0 0 0 0 0 0 0 0 0 32 0 0 39 0 0 0 0 0 0 0 0 0 0 0 0 0 0 0 0 0 0 0 0 0 0 40 0 0 0 0 0 23 0 0 0 0 0 0 0 0 0 0 0 0 0 0 0 0 0 0 0 0 0 0 0 33 0 0 0 0 0 21 0 0 0 0 0 0 0 0 0 0 27 0 0 
		52 0 0 0 0 0 0 30 0 0 0 37 0 39 0 28 0 26 25 0 0 0 0 0 0 0 0 0 0 0 0 0 0 0 0 26 0 0 0 0 0 0 0 0 35 0 0 0 0 0 40 0 0 0 0 0 0 21 0 0 0 0 0 0 0 0 0 32 0 0 0 0 0 0 0 0 0 0 0 0 0 0 0 36 27 0 0 0 0 0 0 0 
		53 0 0 0 0 0 0 0 0 0 32 0 0 31 0 0 0 0 0 0 0 23 0 0 0 0 0 0 0 0 0 0 36 29 34 0 0 0 0 20 38 0 0 0 24 0 0 0 0 0 0 0 0 0 0 0 0 0 0 0 0 0 0 0 0 0 30 0 0 0 0 0 0 0 28 0 0 31 0 0 0 0 0 0 0 0 22 0 0 0 0 0 
		54 0 36 0 0 0 0 0 32 0 0 0 0 0 0 0 0 0 0 0 0 0 0 0 0 0 0 0 0 0 0 0 0 0 0 0 0 0 0 0 0 0 0 0 0 0 0 0 0 0 28 0 0 0 0 0 0 0 0 0 0 0 0 25 0 0 0 0 0 0 0 0 0 0 0 0 0 0 0 0 0 0 0 0 0 40 0 0 0 0 30 0 
		55 0 0 0 0 0 0 0 0 0 0 0 0 0 0 0 0 0 0 0 0 0 0 0 38 0 0 0 0 0 0 0 0 0 0 0 0 0 0 0 0 0 0 0 0 0 0 0 0 36 0 0 0 0 0 0 0 0 23 0 0 0 0 0 0 29 36 0 37 0 0 0 0 0 30 24 0 0 0 0 0 0 0 0 0 0 0 0 0 0 0 0 
		56 0 0 0 0 0 0 0 0 0 26 29 0 0 25 24 0 39 31 0 0 0 0 0 0 0 0 0 37 0 33 0 30 0 0 0 0 0 0 0 0 0 0 0 35 0 25 0 0 0 0 0 0 21 0 0 0 0 0 0 0 0 0 23 0 0 24 0 0 0 0 0 0 0 0 0 0 0 0 0 0 0 0 0 0 0 0 0 0 0 0 0 
		57 0 0 0 0 0 0 0 0 0 40 0 0 0 38 0 0 0 0 0 0 0 0 0 0 0 0 0 21 0 0 0 0 0 25 0 0 0 34 0 0 28 0 20 0 0 0 0 36 0 0 0 0 0 0 0 23 0 0 0 0 24 30 0 0 0 26 0 0 0 0 0 31 0 0 0 0 0 0 0 0 0 0 0 0 0 0 0 0 0 0 0 
		58 0 0 0 0 0 0 31 0 0 0 0 0 0 0 0 0 0 0 0 0 0 0 0 26 0 20 0 0 0 0 0 37 0 0 27 0 0 0 0 0 0 0 0 0 0 0 0 0 0 32 39 0 0 0 0 0 0 0 0 0 0 0 0 0 0 0 0 23 0 0 0 0 0 0 0 0 0 0 0 0 0 0 0 0 0 0 0 39 0 0 0 
		59 0 0 0 0 0 0 0 0 0 0 0 27 0 0 0 0 0 0 0 0 0 0 0 0 0 0 26 0 0 30 0 0 0 0 0 0 0 0 0 0 0 0 0 0 0 36 0 0 0 0 0 0 0 0 0 0 0 0 0 0 0 0 0 0 0 0 0 0 0 0 0 0 0 0 34 0 0 0 0 0 0 0 0 0 34 0 0 0 0 40 0 
		60 0 0 0 0 0 0 0 0 0 0 0 0 0 27 0 0 0 21 0 0 0 0 0 0 0 0 0 39 0 0 0 0 0 0 0 0 37 0 0 0 0 0 35 0 0 0 0 0 0 0 0 0 0 0 0 0 0 24 0 0 0 0 27 0 0 26 0 0 0 0 0 0 0 27 0 0 0 0 0 0 0 0 0 0 0 0 0 0 0 0 0 
		61 0 0 0 0 0 0 0 0 0 0 0 0 0 0 25 0 0 0 0 25 0 0 36 0 0 0 0 0 0 0 0 0 0 39 0 0 0 0 0 32 0 0 0 0 0 0 0 0 0 0 0 0 0 0 0 0 0 30 0 0 0 0 0 0 0 0 0 0 0 0 0 0 0 0 0 0 0 0 31 0 0 0 0 0 0 0 0 0 36 0 0 
		62 0 24 0 0 0 0 0 0 0 0 0 0 0 0 0 0 0 0 0 0 23 31 0 0 0 0 0 0 0 0 0 0 0 0 0 27 0 0 0 0 20 0 0 28 0 0 0 39 0 0 0 0 0 0 25 0 23 0 0 0 27 0 0 0 0 0 0 0 0 0 0 38 0 0 0 28 0 0 0 0 0 0 0 0 27 0 0 0 36 0 0 
		63 0 0 0 38 0 0 0 0 0 0 0 0 0 0 0 0 0 0 23 0 0 0 0 0 0 0 0 0 29 0 0 0 0 0 0 0 0 0 0 0 0 0 0 0 0 0 0 0 0 0 0 0 0 0 0 0 0 0 0 0 0 0 0 0 0 0 0 0 0 0 0 0 33 0 0 0 0 0 0 0 0 0 0 0 0 0 0 0 0 0 33 
		64 0 0 0 0 0 0 35 0 0 0 0 0 32 0 36 0 0 0 0 0 0 0 0 0 0 0 36 0 0 0 0 0 0 0 0 0 0 0 0 0 0 0 0 40 0 0 0 0 0 0 20 0 0 0 0 29 0 0 0 0 0 0 0 0 0 0 0 0 0 0 0 0 0 0 28 0 0 0 0 0 0 0 0 31 0 0 0 0 40 0 0 
		65 0 0 0 0 0 0 0 0 0 0 0 0 0 37 0 0 0 0 0 0 31 0 0 0 0 0 0 40 0 39 0 0 27 0 0 0 0 0 0 0 29 0 0 0 0 0 0 0 21 0 0 0 0 30 0 36 24 26 0 0 26 0 0 0 0 0 0 27 0 0 0 0 0 0 0 0 26 0 22 0 0 0 0 0 0 0 0 0 0 0 0 
		66 0 25 0 0 0 0 0 0 0 0 33 0 0 0 0 0 0 0 0 0 0 0 0 0 0 0 0 0 0 0 28 0 0 0 31 0 0 0 0 0 0 0 0 0 0 28 31 0 0 0 0 0 32 0 0 0 0 0 0 0 0 0 0 0 0 0 0 36 0 0 0 0 0 0 37 0 0 25 0 0 0 0 0 0 0 0 0 0 0 0 0 
		67 0 0 0 0 0 0 0 0 0 0 0 0 0 0 35 0 0 0 0 0 0 0 0 0 0 0 32 0 0 0 0 0 0 0 0 23 0 0 0 0 0 0 33 0 20 0 0 0 0 29 0 0 0 0 0 37 0 0 23 0 0 0 0 0 0 27 36 0 0 0 0 32 0 0 36 0 0 0 0 0 0 0 0 0 34 0 0 0 0 0 31 
		68 23 0 0 0 0 0 39 31 0 0 0 0 24 0 0 0 0 0 0 26 0 0 0 0 0 0 0 0 0 0 0 0 0 0 26 0 0 0 32 0 0 27 0 0 0 0 0 31 0 0 0 0 0 0 0 0 0 0 0 0 0 0 0 0 0 0 0 0 0 0 0 0 0 0 0 0 33 0 0 0 0 0 0 0 0 0 0 0 0 0 21 
		69 0 0 0 0 0 0 25 0 0 0 0 0 0 0 0 0 0 0 0 0 0 0 0 0 0 0 0 0 0 0 0 0 0 0 0 0 0 0 0 0 0 0 0 0 0 0 0 0 0 0 0 0 0 0 0 0 0 0 0 0 0 0 0 0 0 0 0 0 0 0 0 20 0 0 0 0 0 0 0 0 0 0 0 0 0 0 0 0 0 0 20 
		70 0 0 0 40 0 0 0 0 0 0 28 0 0 0 0 0 0 0 0 0 0 0 0 0 0 0 0 0 35 0 0 0 29 0 0 0 0 0 0 0 0 25 0 0 0 0 27 0 0 0 0 0 0 0 0 0 0 0 0 0 0 0 0 0 0 0 0 0 0 0 0 0 30 0 20 0 0 0 0 0 0 0 0 0 0 0 0 0 0 0 0 
		71 0 0 0 0 24 0 0 0 0 0 0 0 0 0 0 0 0 28 32 0 0 0 0 0 0 22 29 0 0 0 0 25 0 0 0 0 0 0 0 0 37 0 0 0 40 0 0 39 0 0 0 33 0 0 0 0 0 31 0 0 0 0 38 0 0 0 0 32 0 20 0 0 0 0 0 0 0 0 0 0 0 28 30 0 0 0 0 0 0 0 0 
		72 0 0 0 0 0 40 0 0 0 0 0 0 0 0 0 0 0 0 0 0 0 0 0 0 0 0 0 0 36 0 0 0 0 0 0 0 0 0 0 0 0 40 0 0 0 0 0 0 0 0 0 0 0 0 0 0 0 0 0 0 0 0 0 33 0 0 0 0 0 0 30 0 0 0 0 0 0 37 0 0 29 0 0 0 0 0 36 35 0 0 0 
		73 0 0 0 0 0 0 0 0 0 0 0 0 36 0 0 33 25 0 0 0 0 0 0 0 0 0 0 0 0 0 0 29 0 0 0 0 0 0 0 0 0 0 0 0 0 0 0 0 0 0 0 0 0 28 0 30 0 0 0 0 27 0 0 0 0 0 0 0 0 0 0 0 0 0 0 0 24 0 0 0 32 0 0 0 0 0 0 0 0 0 0 
		74 0 0 28 27 0 0 0 0 0 0 0 0 0 0 0 0 0 0 28 0 0 0 0 33 0 0 0 0 0 0 0 0 0 0 0 0 0 0 0 0 0 0 0 0 0 0 0 0 0 0 0 0 0 0 0 24 0 0 0 34 0 0 0 0 28 0 37 36 0 0 20 0 0 0 0 0 0 28 0 0 0 0 0 0 0 0 0 25 0 0 0 
		75 0 0 0 0 0 0 0 0 0 0 0 0 0 0 0 0 0 0 0 0 0 0 0 32 0 0 0 0 0 0 0 0 39 0 0 0 0 0 0 0 0 0 0 0 0 0 0 0 0 0 0 0 0 0 0 0 0 0 0 0 0 0 28 0 0 0 0 0 0 0 0 0 0 0 0 0 0 0 0 0 0 0 0 0 0 0 0 0 0 0 0 
		76 0 0 0 0 0 0 0 0 0 0 0 0 0 0 0 0 0 0 0 0 0 0 39 0 0 0 0 0 0 0 0 27 26 32 0 0 0 0 36 0 0 0 0 0 0 0 0 21 0 0 0 0 0 31 0 0 0 0 0 0 0 0 0 0 0 26 0 0 33 0 0 0 0 24 0 0 0 0 0 0 0 0 0 0 0 39 0 0 0 0 0 
		77 0 0 0 0 27 0 0 0 0 0 33 0 31 0 0 21 0 0 0 0 23 0 0 0 0 0 0 0 0 36 0 0 21 0 0 0 0 0 0 0 0 25 0 0 0 0 0 0 0 0 0 21 0 0 0 0 0 0 0 0 0 0 0 0 0 0 25 0 0 0 0 0 37 0 28 0 0 0 0 0 0 0 0 0 0 0 0 0 0 0 27 
		78 0 24 36 0 0 0 0 0 0 0 0 0 0 0 0 0 0 0 0 0 0 0 23 0 0 0 0 0 0 0 0 32 0 0 0 0 0 0 0 0 28 0 0 0 34 0 0 0 0 0 0 0 0 0 0 0 0 0 0 0 0 31 0 0 0 22 0 0 0 0 0 0 0 0 0 0 0 0 0 0 0 38 0 0 0 0 0 0 0 0 0 
		79 0 0 0 0 0 0 0 0 0 0 0 0 0 0 0 0 0 0 0 0 0 0 0 0 0 0 0 0 0 0 28 0 0 0 29 0 0 0 0 0 0 29 0 0 0 0 20 0 0 0 0 0 0 0 0 0 0 0 0 0 0 0 0 0 0 0 0 0 0 0 0 0 0 0 0 0 0 0 0 0 0 0 0 0 0 0 0 0 0 0 0 
		80 0 0 0 0 0 0 0 0 0 0 0 40 0 0 0 0 0 0 0 0 0 0 0 0 0 0 0 0 0 0 0 0 0 30 0 0 0 0 0 0 0 0 0 0 0 0 0 0 0 0 0 0 0 0 0 0 0 0 0 0 0 0 0 0 0 0 0 0 0 0 0 0 29 32 0 0 0 0 0 0 0 0 0 0 0 0 0 0 0 27 0 
		81 0 0 0 0 0 0 0 0 0 0 0 0 0 0 0 0 0 0 0 36 0 0 35 0 0 0 27 0 0 0 0 33 0 0 0 0 0 0 0 0 35 0 0 0 40 0 0 0 0 0 0 0 0 0 0 0 0 0 0 0 0 0 0 0 0 0 0 0 0 0 0 28 0 0 0 0 0 0 38 0 0 0 0 0 0 0 0 0 0 0 0 
		82 0 0 0 0 0 0 0 0 0 0 0 0 23 0 0 0 0 0 35 0 0 0 0 0 0 0 0 0 0 0 0 0 0 0 0 0 0 0 0 0 0 0 0 0 0 0 36 0 0 0 29 0 36 0 0 0 0 0 0 0 0 0 0 0 0 0 0 0 0 0 0 30 0 0 0 0 0 0 0 0 0 0 0 0 0 0 0 0 0 26 0 
		83 24 0 0 0 0 28 0 0 0 0 0 0 0 0 32 0 0 0 0 0 0 0 0 0 0 0 0 0 0 0 0 0 0 0 27 0 0 0 0 0 0 40 0 0 0 0 0 0 0 0 0 0 27 0 0 0 0 0 0 0 0 0 0 0 31 0 0 0 0 0 0 0 0 0 0 0 0 0 0 0 0 0 0 0 31 0 0 0 0 0 0 
		84 0 0 0 0 0 0 0 0 0 0 0 21 34 0 20 0 0 0 0 0 0 0 0 37 0 0 26 0 0 0 0 29 0 0 0 0 0 0 0 0 0 0 0 0 35 0 29 24 0 0 0 0 0 0 40 0 0 0 0 34 0 0 27 0 0 0 0 34 0 0 0 0 0 0 0 0 0 0 0 0 0 0 0 31 0 0 0 0 0 36 0 
		85 30 0 0 0 0 0 0 35 0 0 0 0 0 0 0 0 0 0 21 0 24 36 0 0 0 0 0 0 0 0 0 0 34 0 0 0 0 0 23 0 0 0 0 0 0 0 0 0 0 0 0 0 0 22 0 0 0 0 0 0 0 0 0 0 0 0 0 0 0 0 0 0 0 0 0 0 39 0 0 0 0 0 0 0 0 0 0 0 0 0 0 
		86 0 0 0 0 30 0 0 0 0 0 0 0 0 0 0 0 0 0 35 0 0 0 0 0 0 0 0 37 0 0 0 0 32 0 0 0 0 0 0 0 0 0 0 0 0 0 0 0 0 0 0 0 0 0 0 0 0 0 0 0 0 0 0 0 0 0 0 0 0 0 0 0 36 0 0 0 0 0 0 0 0 0 0 0 0 0 0 0 0 0 0 
		87 0 0 0 0 0 0 0 0 0 0 33 0 0 0 0 36 0 0 0 0 0 0 0 0 0 0 0 0 0 0 0 0 0 0 0 26 0 0 0 0 0 0 0 0 0 0 0 0 0 0 0 0 0 0 0 0 0 0 39 0 0 0 0 0 0 0 0 0 0 0 0 0 35 0 25 0 0 0 0 0 0 0 0 0 0 0 0 0 0 0 0 
		88 0 24 0 0 0 0 29 27 27 0 0 0 0 22 0 36 0 0 0 0 0 0 0 0 0 39 0 0 40 0 0 0 0 0 0 0 38 39 0 0 32 0 0 0 37 0 21 0 0 0 0 27 0 0 0 0 0 0 0 0 0 36 36 0 40 0 0 0 0 0 0 0 0 0 0 0 0 0 0 0 0 0 0 0 0 0 0 0 0 0 0 
		89 0 0 0 21 0 0 0 0 0 0 37 21 0 0 0 0 0 0 0 0 0 0 0 0 0 0 0 0 0 0 0 34 0 0 0 0 0 0 0 0 0 22 0 0 0 0 0 0 0 0 0 0 0 0 30 0 0 0 0 40 0 0 0 0 0 0 0 0 0 0 0 0 0 0 0 0 0 0 0 0 27 0 26 0 36 0 0 0 0 0 0 
		90 0 0 0 0 0 40 0 0 0 0 0 0 0 0 0 0 0 0 0 0 0 0 0 0 0 31 0 0 27 0 0 0 0 0 0 0 0 0 0 0 0 0 0 0 0 0 31 0 0 0 0 0 0 0 0 0 0 0 0 0 0 0 0 33 0 0 0 31 21 20 0 0 0 0 0 0 0 27 0 0 0 0 0 0 0 0 0 0 0 0 0 
;
